Maximize
x0 + x1 + x2 + x3 + x4 + x5 + x6 + x7 + x8 + x9 + x10 + x11 
st
Binary
x0 x1 x2 x3 x4 x5 x6 x7 x8 x9 x10 x11 
end





Maximize
obj: x1 + 2 x2 + 3 x3 + x4
Subject To
c1: - x1 + x2 + x3 + 10 x4 <= 20
c2: x1 - 3 x2 + x3 <= 30
c3: x2 - 3.5 x4 = 0
Bounds
0 <= x1 <= 40x2
-2 <= x4 <= 3
Binary
x3 x4
End